CVEs/CVE-2016-4491.smt2
(set-logic QF_AUFBV )
(declare-fun arg00 () (Array (_ BitVec 32) (_ BitVec 8) ) )
(declare-fun model_version () (Array (_ BitVec 32) (_ BitVec 8) ) )
(assert (let ( (?B1 (select  arg00 (_ bv51 32) ) ) (?B2 (select  arg00 (_ bv53 32) ) ) (?B3 (select  arg00 (_ bv52 32) ) ) (?B4 (select  arg00 (_ bv54 32) ) ) (?B5 (select  arg00 (_ bv56 32) ) ) (?B6 (select  arg00 (_ bv55 32) ) ) (?B7 (select  arg00 (_ bv57 32) ) ) (?B8 (select  arg00 (_ bv2 32) ) ) (?B9 (select  arg00 (_ bv3 32) ) ) (?B10 (select  arg00 (_ bv6 32) ) ) (?B11 (select  arg00 (_ bv33 32) ) ) (?B12 (select  arg00 (_ bv32 32) ) ) (?B13 (select  arg00 (_ bv35 32) ) ) (?B14 (select  arg00 (_ bv34 32) ) ) (?B15 (select  arg00 (_ bv36 32) ) ) (?B16 (select  arg00 (_ bv38 32) ) ) (?B17 (select  arg00 (_ bv37 32) ) ) (?B18 (select  arg00 (_ bv40 32) ) ) (?B19 (select  arg00 (_ bv39 32) ) ) (?B20 (select  arg00 (_ bv41 32) ) ) (?B21 (select  arg00 (_ bv43 32) ) ) (?B22 (select  arg00 (_ bv42 32) ) ) (?B23 (select  arg00 (_ bv45 32) ) ) (?B24 (select  arg00 (_ bv44 32) ) ) (?B25 (select  arg00 (_ bv46 32) ) ) (?B26 (select  arg00 (_ bv48 32) ) ) (?B27 (select  arg00 (_ bv47 32) ) ) (?B28 (select  arg00 (_ bv50 32) ) ) (?B29 (select  arg00 (_ bv49 32) ) ) (?B30 (select  arg00 (_ bv25 32) ) ) (?B31 (select  arg00 (_ bv27 32) ) ) (?B32 (select  arg00 (_ bv28 32) ) ) (?B33 (select  arg00 (_ bv31 32) ) ) ) (let ( (?B34 ((_ sign_extend 24)  ?B1 ) ) (?B35 ((_ sign_extend 24)  ?B2 ) ) (?B36 ((_ sign_extend 24)  ?B3 ) ) (?B37 ((_ sign_extend 24)  ?B4 ) ) (?B39 ((_ sign_extend 24)  ?B6 ) ) (?B38 ((_ sign_extend 24)  ?B5 ) ) (?B40 ((_ sign_extend 24)  ?B7 ) ) (?B41 ((_ sign_extend 24)  ?B8 ) ) (?B43 ((_ sign_extend 24)  ?B9 ) ) (?B44 ((_ sign_extend 24)  ?B10 ) ) (?B45 ((_ sign_extend 24)  ?B11 ) ) (?B46 ((_ sign_extend 24)  ?B12 ) ) (?B48 ((_ sign_extend 24)  ?B14 ) ) (?B49 ((_ sign_extend 24)  ?B23 ) ) (?B50 ((_ sign_extend 24)  ?B25 ) ) (?B52 ((_ sign_extend 24)  ?B27 ) ) (?B53 ((_ sign_extend 24)  ?B28 ) ) (?B54 ((_ sign_extend 24)  ?B29 ) ) (?B55 ((_ sign_extend 24)  ?B31 ) ) (?B57 ((_ sign_extend 24)  ?B32 ) ) (?B58 ((_ sign_extend 24)  ?B33 ) ) (?B56 (bvadd  (_ bv18446744073709551568 64) ((_ sign_extend 56)  ?B31 ) ) ) (?B51 (bvadd  (_ bv18446744073709551568 64) ((_ sign_extend 56)  ?B25 ) ) ) (?B42 (bvadd  (_ bv18446744073709551568 64) ((_ sign_extend 56)  ?B8 ) ) ) (?B47 (bvadd  (_ bv18446744073709551568 64) (bvadd  (bvmul  (_ bv10 64) (bvadd  (_ bv18446744073709551568 64) ((_ sign_extend 56)  ?B12 ) ) ) ((_ sign_extend 56)  ?B11 ) ) ) ) ) (let ( (?B62 ((_ extract 31  0)  ?B56 ) ) (?B60 ((_ extract 31  0)  ?B47 ) ) (?B61 ((_ extract 31  0)  ?B51 ) ) (?B59 ((_ extract 31  0)  ?B42 ) ) ) (let ( (?B64 ((_ sign_extend 32)  ?B60 ) ) (?B65 ((_ sign_extend 32)  ?B61 ) ) (?B66 ((_ sign_extend 32)  ?B62 ) ) (?B63 ((_ sign_extend 32)  ?B59 ) ) ) (let ( (?B67 (bvadd  ?B63 ?B66 ) ) ) (let ( (?B68 (bvadd  ?B67 ?B64 ) ) ) (and  (and  (and  (and  (and  (and  (and  (and  (and  (and  (and  (and  (and  (and  (and  (and  (and  (and  (and  (and  (and  (and  (and  (and  (and  (and  (and  (and  (and  (and  (and  (and  (and  (and  (and  (and  (and  (and  (and  (and  (and  (and  (and  (and  (and  (and  (and  (and  (and  (and  (and  (and  (and  (and  (and  (and  (and  (and  (and  (and  (and  (and  (and  (and  (and  (and  (and  (and  (and  (and  (and  (and  (and  (and  (and  (and  (and  (and  (and  (and  (and  (and  (and  (and  (and  (and  (and  (and  (and  (and  (and  (and  (and  (and  (and  (and  (and  (and  (and  (and  (and  (and  (and  (and  (and  (and  (and  (and  (and  (and  (and  (and  (and  (and  (and  (and  (and  (and  (and  (and  (and  (and  (and  (and  (and  (and  (and  (and  (and  (and  (and  (and  (and  (and  (and  (and  (and  (and  (and  (and  (and  (and  (and  (and  (and  (and  (and  (and  (and  (and  (and  (and  (and  (and  (and  (and  (and  (and  (and  (and  (and  (and  (and  (and  (and  (and  (and  (and  (and  (and  (and  (and  (and  (and  (and  (and  (and  (and  (and  (and  (and  (and  (and  (and  (and  (and  (and  (and  (and  (and  (and  (and  (and  (and  (and  (and  (and  (and  (and  (and  (and  (and  (and  (and  (and  (and  (and  (and  (and  (and  (and  (and  (and  (and  (and  (and  (and  (bvsle  (_ bv32 32) ?B41 ) (bvsle  (_ bv32 32) ?B43 ) ) (bvsle  (_ bv32 32) ?B44 ) ) (bvsle  (_ bv32 32) ((_ sign_extend 24)  ?B30 ) ) ) (bvsle  (_ bv32 32) ?B55 ) ) (bvsle  (_ bv32 32) ?B57 ) ) (bvsle  (_ bv32 32) ?B58 ) ) (bvsle  (_ bv32 32) ?B46 ) ) (bvsle  (_ bv32 32) ?B45 ) ) (bvsle  (_ bv32 32) ?B48 ) ) (bvsle  (_ bv32 32) ((_ sign_extend 24)  ?B13 ) ) ) (bvsle  (_ bv32 32) ((_ sign_extend 24)  ?B15 ) ) ) (bvsle  (_ bv32 32) ((_ sign_extend 24)  ?B17 ) ) ) (bvsle  (_ bv32 32) ((_ sign_extend 24)  ?B16 ) ) ) (bvsle  (_ bv32 32) ((_ sign_extend 24)  ?B19 ) ) ) (bvsle  (_ bv32 32) ((_ sign_extend 24)  ?B18 ) ) ) (bvsle  (_ bv32 32) ((_ sign_extend 24)  ?B20 ) ) ) (bvsle  (_ bv32 32) ((_ sign_extend 24)  ?B22 ) ) ) (bvsle  (_ bv32 32) ((_ sign_extend 24)  ?B21 ) ) ) (bvsle  (_ bv32 32) ((_ sign_extend 24)  ?B24 ) ) ) (bvsle  (_ bv32 32) ?B49 ) ) (bvsle  (_ bv32 32) ?B50 ) ) (bvsle  (_ bv32 32) ?B52 ) ) (bvsle  (_ bv32 32) ((_ sign_extend 24)  ?B26 ) ) ) (bvsle  (_ bv32 32) ?B54 ) ) (bvsle  (_ bv32 32) ?B53 ) ) (bvsle  (_ bv32 32) ?B34 ) ) (bvsle  (_ bv32 32) ?B36 ) ) (bvsle  (_ bv32 32) ?B35 ) ) (bvsle  (_ bv32 32) ?B37 ) ) (bvsle  (_ bv32 32) ?B39 ) ) (bvsle  (_ bv32 32) ?B38 ) ) (bvsle  (_ bv32 32) ?B40 ) ) (=  (_ bv1 32) (concat  (select  model_version (_ bv3 32) ) (concat  (select  model_version (_ bv2 32) ) (concat  (select  model_version (_ bv1 32) ) (select  model_version (_ bv0 32) ) ) ) ) ) ) (=  (_ bv95 8) (select  arg00 (_ bv0 32) ) ) ) (=  (_ bv90 8) (select  arg00 (_ bv1 32) ) ) ) (=  false (=  (_ bv0 8) ?B8 ) ) ) (=  false (=  (_ bv0 8) ?B9 ) ) ) (=  false (=  (_ bv0 8) ?B10 ) ) ) (=  false (=  (_ bv0 8) ?B30 ) ) ) (=  false (=  (_ bv0 8) ?B31 ) ) ) (=  false (=  (_ bv0 8) ?B32 ) ) ) (=  false (=  (_ bv0 8) ?B33 ) ) ) (=  false (=  (_ bv0 8) ?B12 ) ) ) (=  false (=  (_ bv0 8) ?B11 ) ) ) (=  false (=  (_ bv0 8) ?B14 ) ) ) (=  false (=  (_ bv0 8) ?B13 ) ) ) (=  false (=  (_ bv0 8) ?B15 ) ) ) (=  false (=  (_ bv0 8) ?B17 ) ) ) (=  false (=  (_ bv0 8) ?B16 ) ) ) (=  false (=  (_ bv0 8) ?B19 ) ) ) (=  false (=  (_ bv0 8) ?B18 ) ) ) (=  false (=  (_ bv0 8) ?B20 ) ) ) (=  false (=  (_ bv0 8) ?B22 ) ) ) (=  false (=  (_ bv0 8) ?B21 ) ) ) (=  false (=  (_ bv0 8) ?B24 ) ) ) (=  false (=  (_ bv0 8) ?B23 ) ) ) (=  false (=  (_ bv0 8) ?B25 ) ) ) (=  false (=  (_ bv0 8) ?B27 ) ) ) (=  false (=  (_ bv0 8) ?B26 ) ) ) (=  false (=  (_ bv0 8) ?B29 ) ) ) (=  false (=  (_ bv0 8) ?B28 ) ) ) (=  false (=  (_ bv0 8) ?B1 ) ) ) (=  false (=  (_ bv0 8) ?B3 ) ) ) (=  false (=  (_ bv0 8) ?B2 ) ) ) (=  false (=  (_ bv0 8) ?B4 ) ) ) (=  false (=  (_ bv0 8) ?B6 ) ) ) (=  false (=  (_ bv0 8) ?B5 ) ) ) (=  false (=  (_ bv0 8) ?B7 ) ) ) (=  false (=  (_ bv71 8) ?B8 ) ) ) (=  false (=  (_ bv84 8) ?B8 ) ) ) (bvsle  (_ bv48 32) ?B41 ) ) (bvsle  ?B41 (_ bv57 32) ) ) (=  false (=  (_ bv110 8) ?B8 ) ) ) (bvsle  (_ bv48 32) ?B43 ) ) (=  false (bvsle  ?B43 (_ bv57 32) ) ) ) (=  false (bvsle  ?B42 (_ bv0 64) ) ) ) (=  false (bvslt  (_ bv55 64) ?B63 ) ) ) (=  false (bvsle  (_ bv10 32) ?B59 ) ) ) (=  false (=  (_ bv0 32) ?B59 ) ) ) (=  (_ bv65 8) (select  arg00 (_ bv4 32) ) ) ) (=  (_ bv95 8) (select  arg00 (_ bv5 32) ) ) ) (=  false (=  (_ bv114 8) ?B10 ) ) ) (=  false (=  (_ bv86 8) ?B10 ) ) ) (=  false (=  (_ bv75 8) ?B10 ) ) ) (=  false (=  (_ bv18446650023400561664 64) (bvmul  (_ bv32 64) ((_ sign_extend 32)  (bvadd  (_ bv4294967199 32) ?B44 ) ) ) ) ) ) (=  (_ bv77 8) (select  arg00 (_ bv7 32) ) ) ) (=  (_ bv77 8) (select  arg00 (_ bv8 32) ) ) ) (=  (_ bv77 8) (select  arg00 (_ bv9 32) ) ) ) (=  (_ bv77 8) (select  arg00 (_ bv10 32) ) ) ) (=  (_ bv65 8) (select  arg00 (_ bv11 32) ) ) ) (=  (_ bv95 8) (select  arg00 (_ bv12 32) ) ) ) (=  (_ bv77 8) (select  arg00 (_ bv13 32) ) ) ) (=  (_ bv77 8) (select  arg00 (_ bv14 32) ) ) ) (=  (_ bv65 8) (select  arg00 (_ bv15 32) ) ) ) (=  (_ bv95 8) (select  arg00 (_ bv16 32) ) ) ) (=  (_ bv77 8) (select  arg00 (_ bv17 32) ) ) ) (=  (_ bv77 8) (select  arg00 (_ bv18 32) ) ) ) (=  (_ bv77 8) (select  arg00 (_ bv19 32) ) ) ) (=  (_ bv77 8) (select  arg00 (_ bv20 32) ) ) ) (=  (_ bv77 8) (select  arg00 (_ bv21 32) ) ) ) (=  (_ bv77 8) (select  arg00 (_ bv22 32) ) ) ) (=  (_ bv77 8) (select  arg00 (_ bv23 32) ) ) ) (=  (_ bv77 8) (select  arg00 (_ bv24 32) ) ) ) (=  false (=  (_ bv114 8) ?B30 ) ) ) (=  false (=  (_ bv86 8) ?B30 ) ) ) (=  false (=  (_ bv75 8) ?B30 ) ) ) (=  (_ bv116 8) (select  arg00 (_ bv26 32) ) ) ) (bvsle  (_ bv48 32) ?B55 ) ) (bvsle  ?B55 (_ bv57 32) ) ) (=  false (=  (_ bv110 8) ?B31 ) ) ) (bvsle  (_ bv48 32) ?B57 ) ) (=  false (bvsle  ?B57 (_ bv57 32) ) ) ) (=  false (bvsle  ?B56 (_ bv0 64) ) ) ) (=  false (bvslt  (bvsub  (_ bv31 64) ?B63 ) ?B66 ) ) ) (=  false (bvsle  (_ bv10 32) ?B62 ) ) ) (=  false (=  (_ bv0 32) ?B62 ) ) ) (=  (_ bv95 8) (select  arg00 (_ bv30 32) ) ) ) (=  (_ bv83 8) (select  arg00 (_ bv29 32) ) ) ) (=  false (=  (_ bv73 8) ?B33 ) ) ) (=  false (=  (_ bv114 8) ?B33 ) ) ) (=  false (=  (_ bv86 8) ?B33 ) ) ) (=  false (=  (_ bv75 8) ?B33 ) ) ) (=  false (=  (_ bv18446650023400561664 64) (bvmul  (_ bv32 64) ((_ sign_extend 32)  (bvadd  (_ bv4294967199 32) ?B58 ) ) ) ) ) ) (=  false (=  (_ bv114 8) ?B12 ) ) ) (=  false (=  (_ bv86 8) ?B12 ) ) ) (=  false (=  (_ bv75 8) ?B12 ) ) ) (bvsle  (_ bv48 32) ?B46 ) ) (bvsle  ?B46 (_ bv57 32) ) ) (=  false (=  (_ bv110 8) ?B12 ) ) ) (bvsle  (_ bv48 32) ?B45 ) ) (bvsle  ?B45 (_ bv57 32) ) ) (bvsle  (_ bv48 32) ?B48 ) ) (=  false (bvsle  ?B48 (_ bv57 32) ) ) ) (=  false (bvsle  ?B47 (_ bv0 64) ) ) ) (=  false (bvslt  (bvsub  (_ bv26 64) ?B67 ) ?B64 ) ) ) (bvsle  (_ bv10 32) ?B60 ) ) (=  false (=  (_ bv95 8) ?B14 ) ) ) (=  false (=  (_ bv18446650022972345504 64) ?B67 ) ) ) (=  false (=  (_ bv0 32) ?B60 ) ) ) (=  false (=  (_ bv66 8) ?B23 ) ) ) (=  false (=  (_ bv73 8) ?B23 ) ) ) (=  false (=  (_ bv114 8) ?B23 ) ) ) (=  false (=  (_ bv86 8) ?B23 ) ) ) (=  false (=  (_ bv75 8) ?B23 ) ) ) (=  false (=  (_ bv18446650023400561664 64) (bvmul  (_ bv32 64) ((_ sign_extend 32)  (bvadd  (_ bv4294967199 32) ?B49 ) ) ) ) ) ) (=  false (=  (_ bv114 8) ?B25 ) ) ) (=  false (=  (_ bv86 8) ?B25 ) ) ) (=  false (=  (_ bv75 8) ?B25 ) ) ) (bvsle  (_ bv48 32) ?B50 ) ) (bvsle  ?B50 (_ bv57 32) ) ) (=  false (=  (_ bv110 8) ?B25 ) ) ) (bvsle  (_ bv48 32) ?B52 ) ) (=  false (bvsle  ?B52 (_ bv57 32) ) ) ) (=  false (bvsle  ?B51 (_ bv0 64) ) ) ) (=  false (bvslt  (bvsub  (_ bv24 64) ?B68 ) ?B65 ) ) ) (=  false (bvsle  (_ bv10 32) ?B61 ) ) ) (=  false (=  (_ bv18446650022972345502 64) ?B68 ) ) ) (=  false (=  (_ bv0 32) ?B61 ) ) ) (=  false (=  (_ bv66 8) ?B29 ) ) ) (=  false (=  (_ bv73 8) ?B29 ) ) ) (=  false (=  (_ bv114 8) ?B29 ) ) ) (=  false (=  (_ bv86 8) ?B29 ) ) ) (=  false (=  (_ bv75 8) ?B29 ) ) ) (=  false (=  (_ bv18446650023400561664 64) (bvmul  (_ bv32 64) ((_ sign_extend 32)  (bvadd  (_ bv4294967199 32) ?B54 ) ) ) ) ) ) (=  false (=  (_ bv114 8) ?B28 ) ) ) (=  false (=  (_ bv86 8) ?B28 ) ) ) (=  false (=  (_ bv75 8) ?B28 ) ) ) (=  false (=  (_ bv18446650023400561664 64) (bvmul  (_ bv32 64) ((_ sign_extend 32)  (bvadd  (_ bv4294967199 32) ?B53 ) ) ) ) ) ) (=  false (=  (_ bv114 8) ?B1 ) ) ) (=  false (=  (_ bv86 8) ?B1 ) ) ) (=  false (=  (_ bv75 8) ?B1 ) ) ) (=  false (=  (_ bv18446650023400561664 64) (bvmul  (_ bv32 64) ((_ sign_extend 32)  (bvadd  (_ bv4294967199 32) ?B34 ) ) ) ) ) ) (=  false (=  (_ bv114 8) ?B3 ) ) ) (=  false (=  (_ bv86 8) ?B3 ) ) ) (=  false (=  (_ bv75 8) ?B3 ) ) ) (=  false (=  (_ bv18446650023400561664 64) (bvmul  (_ bv32 64) ((_ sign_extend 32)  (bvadd  (_ bv4294967199 32) ?B36 ) ) ) ) ) ) (=  false (=  (_ bv114 8) ?B2 ) ) ) (=  false (=  (_ bv86 8) ?B2 ) ) ) (=  false (=  (_ bv75 8) ?B2 ) ) ) (=  false (=  (_ bv18446650023400561664 64) (bvmul  (_ bv32 64) ((_ sign_extend 32)  (bvadd  (_ bv4294967199 32) ?B35 ) ) ) ) ) ) (=  false (=  (_ bv114 8) ?B4 ) ) ) (=  false (=  (_ bv86 8) ?B4 ) ) ) (=  false (=  (_ bv75 8) ?B4 ) ) ) (=  false (=  (_ bv18446650023400561664 64) (bvmul  (_ bv32 64) ((_ sign_extend 32)  (bvadd  (_ bv4294967199 32) ?B37 ) ) ) ) ) ) (=  false (=  (_ bv114 8) ?B6 ) ) ) (=  false (=  (_ bv86 8) ?B6 ) ) ) (=  false (=  (_ bv75 8) ?B6 ) ) ) (=  false (=  (_ bv18446650023400561664 64) (bvmul  (_ bv32 64) ((_ sign_extend 32)  (bvadd  (_ bv4294967199 32) ?B39 ) ) ) ) ) ) (=  false (=  (_ bv114 8) ?B5 ) ) ) (=  false (=  (_ bv86 8) ?B5 ) ) ) (=  false (=  (_ bv75 8) ?B5 ) ) ) (=  false (=  (_ bv18446650023400561664 64) (bvmul  (_ bv32 64) ((_ sign_extend 32)  (bvadd  (_ bv4294967199 32) ?B38 ) ) ) ) ) ) (=  false (=  (_ bv114 8) ?B7 ) ) ) (=  false (=  (_ bv86 8) ?B7 ) ) ) (=  false (=  (_ bv75 8) ?B7 ) ) ) (=  false (=  (_ bv18446650023400561664 64) (bvmul  (_ bv32 64) ((_ sign_extend 32)  (bvadd  (_ bv4294967199 32) ?B40 ) ) ) ) ) ) (bvult  (_ bv0 64) ?B63 ) ) (=  false (bvult  (_ bv1 64) ?B63 ) ) ) (bvult  (_ bv0 64) ?B65 ) ) (bvult  (_ bv1 64) ?B65 ) ) (=  false (bvult  (_ bv2 64) ?B65 ) ) ) (=  false (=  (_ bv40 8) ?B26 ) ) ) (bvult  (_ bv0 64) ?B64 ) ) (bvult  (_ bv1 64) ?B64 ) ) (bvult  (_ bv2 64) ?B64 ) ) (bvult  (_ bv3 64) ?B64 ) ) (bvult  (_ bv4 64) ?B64 ) ) (bvult  (_ bv5 64) ?B64 ) ) (bvult  (_ bv6 64) ?B64 ) ) (bvult  (_ bv7 64) ?B64 ) ) (bvult  (_ bv8 64) ?B64 ) ) (bvult  (_ bv9 64) ?B64 ) ) (bvult  (_ bv10 64) ?B64 ) ) (=  false (bvult  (_ bv11 64) ?B64 ) ) ) (=  false (=  (_ bv40 8) ?B24 ) ) ) (bvult  (_ bv0 64) ?B66 ) ) (=  false (bvult  (_ bv1 64) ?B66 ) ) ) ) ) ) ) ) ) )
(check-sat)
(exit)